p cnf 58 210
-2 -3 -4 0
2 3 -4 0
-2 3 4 0
2 -3 4 0
-5 1 0
-5 4 0
-1 -4 5 0
-9 -7 0
-9 8 0
7 -8 9 0
-10 -6 0
-10 9 0
6 -9 10 0
11 10 0
11 -1 0
-10 1 -11 0
-12 2 0
-12 6 0
-2 -6 12 0
11 12 -13 0
-11 -12 -13 0
11 -12 13 0
-11 12 13 0
-15 14 0
-15 -14 0
16 15 0
16 2 0
-15 -2 -16 0
-18 -17 0
-18 -10 0
17 10 18 0
19 7 -20 0
-19 -7 -20 0
19 -7 20 0
-19 7 20 0
-21 15 0
-21 15 0
-15 21 0
20 21 -22 0
-20 -21 -22 0
20 -21 22 0
-20 21 22 0
23 18 0
23 -22 0
-18 22 -23 0
-16 23 -24 0
16 -23 -24 0
-16 -23 24 0
16 23 24 0
-3 -7 -25 0
3 7 -25 0
-3 7 25 0
3 -7 25 0
-26 -8 0
-26 -25 0
8 25 26 0
27 7 0
27 -26 0
-7 26 -27 0
24 -27 -28 0
-24 27 -28 0
24 27 28 0
-24 -27 28 0
13 -28 -29 0
-13 28 -29 0
13 28 29 0
-13 -28 29 0
30 6 0
30 -6 0
6 25 -31 0
-6 -25 -31 0
6 -25 31 0
-6 25 31 0
-31 -32 -33 0
31 32 -33 0
-31 32 33 0
31 -32 33 0
34 -30 0
34 33 0
30 -33 -34 0
35 -7 0
35 15 0
7 -15 -35 0
-36 -20 0
-36 -35 0
20 35 36 0
-37 -34 0
-37 36 0
34 -36 37 0
38 1 0
38 -4 0
-1 4 -38 0
-39 -15 0
-39 7 0
15 -7 39 0
-38 -39 -40 0
38 39 -40 0
-38 39 40 0
38 -39 40 0
41 37 0
41 -40 0
-37 40 -41 0
-42 -4 0
-42 -21 0
4 21 42 0
-32 42 -43 0
32 -42 -43 0
-32 -42 43 0
32 42 43 0
-44 -14 0
-44 -43 0
14 43 44 0
8 -20 -45 0
-8 20 -45 0
8 20 45 0
-8 -20 45 0
-44 -45 -46 0
44 45 -46 0
-44 45 46 0
44 -45 46 0
-47 -6 0
-47 4 0
6 -4 47 0
-46 -47 -48 0
46 47 -48 0
-46 47 48 0
46 -47 48 0
-41 -48 -49 0
41 48 -49 0
-41 48 49 0
41 -48 49 0
-50 3 0
-50 8 0
-3 -8 50 0
-51 -50 0
-51 9 0
50 -9 51 0
52 1 0
52 25 0
-1 -25 -52 0
53 51 0
53 -52 0
-51 52 -53 0
26 -20 -54 0
-26 20 -54 0
26 20 54 0
-26 -20 54 0
-55 -53 0
-55 54 0
53 -54 55 0
-49 55 -56 0
49 -55 -56 0
-49 -55 56 0
49 55 56 0
57 -29 0
57 56 0
29 -56 -57 0
5 -57 -58 0
-5 57 -58 0
5 57 58 0
-5 -57 58 0
6 -21 -47 1 -32 28 0
7 18 36 -46 0
44 -47 50 57 0
15 13 0
6 -51 -27 -16 0
-9 56 -41 40 0
36 -37 -12 -57 -13 0
-37 -33 0
38 33 51 44 15 0
-31 -6 13 -49 -58 0
-41 -15 54 -33 -57 0
-24 10 -25 47 0
16 34 -29 0
20 -33 -5 21 0
-55 18 3 50 -49 47 0
-28 25 0
15 -20 -51 28 0
-47 22 25 -5 -24 0
58 -26 0
-1 5 56 -11 0
32 14 25 -36 -12 15 0
-33 -34 22 -40 0
-51 -52 7 0
40 -19 0
9 43 0
55 34 53 -39 -15 0
-26 5 39 -52 15 0
-37 -54 22 19 -24 -46 0
18 -37 42 0
13 -58 -25 -14 -21 54 0
20 23 0
56 -21 19 0
3 -21 -26 42 0
-14 -46 56 31 -30 0
-58 -30 -9 11 0
4 -31 -43 -26 -1 -32 0
-29 58 5 -38 -52 6 0
-49 47 -55 -35 3 0
-50 -51 -7 15 13 52 0
-29 25 31 47 -30 0
-22 43 6 0
21 15 40 -32 0
-46 9 -53 35 56 -57 0
-26 23 -4 33 0
16 36 -3 39 0
-2 -35 0
-16 -5 37 -4 13 0
58 42 0
58 0
